!B3LYP def2-SVPD OPT FREQ TightSCF PAL8

%scf
  MaxIter 300
end

* xyz 0 1 
O         -1.16324        3.48652        0.32805
O         -4.60072        0.47494       -0.44112
C         -1.22481        2.37302        0.15918
C         -3.47954        0.39807       -0.34548
Mo        -1.34203        0.25106       -0.16349
C         -1.55752       -0.05102        1.95254
O         -1.67065       -0.20959        3.06359
N         -1.12201        0.54907       -2.24326
C          0.79225        0.10018        0.03566
C         -1.46501       -1.87307       -0.46973
O          1.91269        0.02077        0.13993
O         -1.52953       -2.98771       -0.63055
H         -2.05490        0.70931       -2.68408
H         -0.51366        1.38043       -2.41513
H         -0.67734       -0.29196       -2.67408
*