!B3LYP def2-SVPD OPT FREQ TightSCF PAL8

%scf
  MaxIter 300
end

* xyz 0 2 
Ta         0.27389        0.93013        0.02870
C          2.48952        0.92813        0.05974
C          0.27413        3.14227        0.15631
C         -1.94181        0.93257       -0.00228
C          0.27335       -1.28214       -0.09889
O          0.27421        4.26850        0.22072
O          3.61744        0.92722        0.07540
O         -3.06965        0.93392       -0.01792
O          0.27303       -2.40821       -0.16332
C          0.30585        1.06042       -2.18307
C          0.24221        0.79935        2.24054
O          0.32231        1.12721       -3.30901
O          0.22601        0.73218        3.36636
*