!B3LYP def2-TZVPD OPT FREQ TightSCF PAL8

%scf
  MaxIter 300
end

* xyz -1 1
Mo         1.30392        1.79866       -0.08309
C          3.44577        1.82090        0.08303
C          1.31982        3.89094       -0.57151
C         -0.83806        1.77471       -0.24899
C          1.28884       -0.29340        0.40512
O          1.32839        4.98944       -0.82748
O          4.57032        1.83218        0.17043
O          1.28111       -1.39188        0.66144
O         -1.96262        1.76171       -0.33566
C          1.47122        1.30977       -2.16856
O          1.55917        1.05286       -3.26341
Cl         1.11801        2.34183        2.23336
*