!B3LYP def2-TZVPD OPT FREQ TightSCF PAL8

%scf
  MaxIter 300
end

* xyz -1 1 
Mo        -0.53152        1.02343        0.00977
C         -0.66263        3.16651       -0.06564
C         -2.66770        0.88609       -0.17337
C          1.60465        1.16087        0.19289
C         -0.40062       -1.11966        0.08512
O         -0.73146        4.29171       -0.10500
O          2.72626        1.23312        0.28838
O         -0.33201       -2.24488        0.12439
O         -3.78932        0.81394       -0.26890
C         -0.34118        0.95870       -2.12925
C         -0.72161        1.08806        2.14875
O         -0.82201        1.12219        3.27177
N         -0.23798        0.92361       -3.28106
*