!B3LYP def2-SVP OPT FREQ

* xyz -2 1 
Pt        -0.62085        1.01059        0.03482
C         -0.61785        3.07342        0.17949
C          1.44612        1.00364        0.09658
C         -0.62395       -1.05224       -0.10986
C         -2.68781        1.01819       -0.02689
O         -0.61620        4.19870        0.25785
O          2.57362        1.00008        0.13005
O         -0.62572       -2.17753       -0.18823
O         -3.81532        1.02248       -0.06031
C         -0.55782        1.15681       -2.02694
C         -0.68377        0.86370        2.09654
O         -0.52317        1.23695       -3.15156
O         -0.71830        0.78285        3.22112
*